     Program PHONON v.7.4.1 starts on 15Jul2025 at 12:22: 6

     Waiting for input...
     Reading input from standard input
      Title line not specified: using 'default'.

     Reading xml data from directory:

     ./tmp/si_scf.save/

     IMPORTANT: XC functional enforced from input :
     Exchange-correlation= PZ
                           (   1   1   0   0   0   0   0)
     Any further DFT definition will be discarded
     Please, verify this is what you really want

     Using Slab Decomposition

     Reading collected, re-writing distributed wavefunctions in ./tmp/

     Number and degeneracy of irreps per q-point
       N         xq(1)         xq(2)         xq(3)   N irreps
       1   0.000000000   0.000000000   0.000000000       2
        3   3

     Calculation of q =    0.0000000   0.0000000   0.0000000

     default

     bravais-lattice index     =            0
     lattice parameter (alat)  =       7.2558  a.u.
     unit-cell volume          =     270.1072 (a.u.)^3
     number of atoms/cell      =            2
     number of atomic types    =            1
     kinetic-energy cut-off    =      30.0000  Ry
     charge density cut-off    =     240.0000  Ry
     convergence threshold     =      1.0E-12
     beta                      =       0.7000
     number of iterations used =            4
     Exchange-correlation= PZ
                           (   1   1   0   0   0   0   0)

     celldm(1)=    7.25577  celldm(2)=    0.00000  celldm(3)=    0.00000
     celldm(4)=    0.00000  celldm(5)=    0.00000  celldm(6)=    0.00000

     crystal axes: (cart. coord. in units of alat)
               a(1) = (  0.0000  0.7071  0.7071 )
               a(2) = (  0.7071  0.0000  0.7071 )
               a(3) = (  0.7071  0.7071  0.0000 )

     reciprocal axes: (cart. coord. in units 2 pi/alat)
               b(1) = ( -0.7071  0.7071  0.7071 )
               b(2) = (  0.7071 -0.7071  0.7071 )
               b(3) = (  0.7071  0.7071 -0.7071 )

     Atoms inside the unit cell:

     Cartesian axes

     site n.  atom      mass           positions (alat units)
        1  Si     28.0855   tau(    1) = (    0.00000    0.00000    0.00000  )
        2  Si     28.0855   tau(    2) = (    0.35355    0.35355    0.35355  )

     Computing dynamical matrix for
                    q = (   0.0000000   0.0000000   0.0000000 )

     49 Sym.Ops. (with q -> -q+G )

     G cutoff =  320.0508  (  16889 G-vectors)     FFT grid: ( 36, 36, 36)
     G cutoff =  160.0254  (   5985 G-vectors)  smooth grid: ( 32, 32, 32)
     number of k points=     3
                       cart. coord. in units 2pi/alat
        k(    1) = (   0.0000000   0.0000000   0.0000000), wk =   0.2500000
        k(    2) = (  -0.3535534  -0.3535534   0.3535534), wk =   1.0000000
        k(    3) = (  -0.7071068   0.0000000   0.0000000), wk =   0.7500000

     PseudoPot. # 1 for Si read from file:
     ./Si.pz-vbc.UPF
     MD5 check sum: 6dfa03ddd5817404712e03e4d12deb78
     Pseudo is Norm-conserving, Zval =  4.0
     Generated by new atomic code, or converted to UPF format
     Using radial grid of  431 points,  2 beta functions with:
                l(1) =   0
                l(2) =   1

     Mode symmetry, O_h (m-3m)  point group:

     Electric field:
     Dielectric constant
     Born effective charges as d Force / d E
     Raman tensor

     Atomic displacements:
     There are    2 irreducible representations

     Representation     1      3 modes -  To be done

     Representation     2      3 modes -  To be done

     Alpha used in Ewald sum =   2.5000

     Electric Fields Calculation

      thresh= 1.000E-02 alpha_mix =  0.700 |ddv_scf|^2 =  5.375E-07

[...]

     End of electric fields calculation

          Dielectric constant in cartesian axis

          (      59.855528368       0.000000000      -0.000000000 )
          (      -0.000000000      59.855528368       0.000000000 )
          (      -0.000000000       0.000000000      59.855528368 )

          Effective charges (d Force / dE) in cartesian axis without acoustic sum rule applied (asr)

           atom    1  Si    Mean Z*:       -5.60370
      Ex  (       -5.60370       -0.00000       -0.00000 )
      Ey  (       -0.00000       -5.60370       -0.00000 )
      Ez  (       -0.00000        0.00000       -5.60370 )
           atom    2  Si    Mean Z*:       -5.60370
      Ex  (       -5.60370       -0.00000       -0.00000 )
      Ey  (       -0.00000       -5.60370       -0.00000 )
      Ez  (       -0.00000       -0.00000       -5.60370 )

          Effective charges Sum: Mean:      -11.20739
            -11.20739       -0.00000       -0.00000
             -0.00000      -11.20739       -0.00000
             -0.00000       -0.00000      -11.20739

          Effective charges (d Force / dE) in cartesian axis with asr applied:
           atom    1  Si    Mean Z*:       -0.00000
      E*x (       -0.00000        0.00000        0.00000 )
      E*y (        0.00000       -0.00000        0.00000 )
      E*z (       -0.00000        0.00000       -0.00000 )
           atom    2  Si    Mean Z*:        0.00000
      E*x (        0.00000       -0.00000       -0.00000 )
      E*y (        0.00000        0.00000       -0.00000 )
      E*z (        0.00000       -0.00000        0.00000 )

     Calling punch_plot_e
     Writing on file  drho

     Computing Pc [DH,Drho] |psi>

     Derivative coefficient:  0.001000    Threshold: 1.00E-12
     Non-scf  u_k: avg # of iterations = 16.9
     Non-scf Du_k: avg # of iterations = 24.7

          Dielectric constant from finite-differences

[...]

     Computing Second order response

      iter #   1   av.it.:   9.1
      thresh= 1.000E-02 alpha_mix =  0.700 |ddv_scf|^2 =  1.109E-04

[...]

      iter #   6   av.it.:   9.3
      thresh= 2.799E-07 alpha_mix =  0.700 |ddv_scf|^2 =  7.961E-15

          Raman tensor (au^-1) in cartesian axis

           atom      1
          (       0.000000000      -0.000000000      -0.000000000 )
          (      -0.000000000       0.000000000     -25.222643770 )
          (      -0.000000000     -25.222643770      -0.000000000 )

[...]

           atom      2
          (      -0.000000000       0.000000000      -0.000000000 )
          (      -0.000000000       0.000000000      25.222643770 )
          (       0.000000000      25.222643770      -0.000000000 )

[...]

     Raman tensor (A^2)

     atom #    1    pol.  1
      0.312884427362E-13     -0.328635222311E-13     -0.990445441374E-14
     -0.328635222311E-13      0.312884427362E-13     -0.151816546055E+03
     -0.990445441374E-14     -0.151816546055E+03     -0.542475105536E-13
     atom #    1    pol.  2
     -0.328635222311E-13      0.312884427362E-13     -0.151816546055E+03
      0.259424456556E-13     -0.275175251505E-13      0.613353682809E-14
     -0.151816546055E+03      0.114795339087E-13      0.740564193811E-13
     atom #    1    pol.  3
      0.328635222311E-13     -0.151816546055E+03      0.312884427362E-13
     -0.151816546055E+03      0.542475105536E-13     -0.328635222311E-13
      0.990445441374E-14     -0.328635222311E-13     -0.526724310586E-13
     atom #    2    pol.  1
     -0.154867134186E-13      0.589727490385E-14     -0.272812632263E-13
     -0.479471925737E-14      0.165892690651E-13      0.151816546055E+03
      0.261787075798E-13      0.151816546055E+03     -0.261787075798E-13
     atom #    2    pol.  2
     -0.208327104992E-13      0.326272603069E-13      0.151816546055E+03
      0.112432719845E-13     -0.208327104992E-13     -0.551277823236E-15
      0.151816546055E+03      0.368707017410E-13      0.589727490385E-14
     atom #    2    pol.  3
     -0.326272603069E-13      0.151816546055E+03      0.540112486293E-13
      0.151816546055E+03     -0.112432719845E-13     -0.315247046604E-13
     -0.101407163380E-13      0.112432719845E-13      0.101407163380E-13

     Representation #   1 modes #   1   2   3

     Self-consistent Calculation

[...]

     End of self-consistent calculation

     Convergence has been achieved

     Representation #   2 modes #   4   5   6

     Self-consistent Calculation

[...]

      thresh= 3.608E-07 alpha_mix =  0.700 |ddv_scf|^2 =  3.566E-14

     End of self-consistent calculation

     Convergence has been achieved

     Number of q in the star =    1
     List of q in the star:
          1   0.000000000   0.000000000   0.000000000

          Dielectric constant in cartesian axis

          (      59.847283849       0.000000000      -0.000000000 )
          (       0.000000000      59.847283849       0.000000000 )
          (      -0.000000000       0.000000000      59.847283849 )

          Effective charges (d Force / dE) in cartesian axis without acoustic sum rule applied (asr)

           atom    1  Si    Mean Z*:       -5.60370
      Ex  (       -5.60370       -0.00000       -0.00000 )
      Ey  (       -0.00000       -5.60370       -0.00000 )
      Ez  (       -0.00000        0.00000       -5.60370 )
           atom    2  Si    Mean Z*:       -5.60370
      Ex  (       -5.60370       -0.00000       -0.00000 )
      Ey  (       -0.00000       -5.60370       -0.00000 )
      Ez  (       -0.00000       -0.00000       -5.60370 )

          Effective charges Sum: Mean:      -11.20739
            -11.20739       -0.00000       -0.00000
             -0.00000      -11.20739       -0.00000
             -0.00000       -0.00000      -11.20739

          Effective charges (d Force / dE) in cartesian axis with asr applied:
           atom    1  Si    Mean Z*:       -0.00000
      E*x (       -0.00000        0.00000        0.00000 )
      E*y (        0.00000       -0.00000        0.00000 )
      E*z (       -0.00000        0.00000       -0.00000 )
           atom    2  Si    Mean Z*:        0.00000
      E*x (        0.00000       -0.00000       -0.00000 )
      E*y (        0.00000        0.00000       -0.00000 )
      E*z (        0.00000       -0.00000        0.00000 )

     Diagonalizing the dynamical matrix

     q = (    0.000000000   0.000000000   0.000000000 )

     freq (    1) =       0.523480 [THz] =      17.461428 [cm-1]
     freq (    2) =       0.523480 [THz] =      17.461428 [cm-1]
     freq (    3) =       0.523480 [THz] =      17.461428 [cm-1]
     freq (    4) =      17.213659 [THz] =     574.185872 [cm-1]
     freq (    5) =      17.213659 [THz] =     574.185872 [cm-1]
     freq (    6) =      17.213659 [THz] =     574.185872 [cm-1]

     Mode symmetry, O_h (m-3m)  point group:

     freq (   1-   3) =         17.5  [cm-1]   --> T_1u G_15  G_4- I
     freq (   4-   6) =        574.2  [cm-1]   --> T_2g G_25' G_5+ R

     INITIALIZATION:

     DIELECTRIC CONSTANT AND EFFECTIVE CHARGES:

     RAMAN COEFFICIENTS, THIRD-ORDER CHI:

     DYNAMICAL MATRIX:

                                        0.00s GPU  (     225 calls)
                                        0.00s GPU  (     120 calls)
                                        0.00s GPU  (      24 calls)

                                        0.00s GPU  (     108 calls)

      General routines

      Additional routines
                                        0.00s GPU  (    5080 calls)

   This run was terminated on:  12:22:18  15Jul2025

   JOB DONE.